(set-logic QF_LIA)
(declare-fun p () Int)
(declare-fun q () Int)
(declare-fun x () Bool)
(declare-fun y () Bool)
(define-fun .def_1 () Bool (! (and x y) :cost 1))
(assert (=> x (> p q)))
(assert (=> y (> q p)))
(check-sat)